p cnf 24 19
-1 -2 19 -22 -23 0 
-3 20 0 
-4 21 -22 -23 0 
-5 22 -23 0 
-6 23 -22 0 
-7 -8 10 24 -22 -23 0 
-9 -10 8 24 -22 -23 0 
-7 -11 24 -22 -23 0 
-7 21 -22 -23 0 
-9 21 -22 -23 0 
-12 21 -22 -23 0 
-13 21 -22 -23 0 
-14 -6 23 -22 0 
-3 21 -22 -23 0 
-15 -6 24 -22 -23 0 
-5 21 -22 -23 0 
-16 21 -22 -23 0 
-17 -15 -18 24 -22 -23 0 
-6 23 -22 0 
